O  C  O  C  H                           
   1.00000000000000     
    20.9000000000000057    0.0000000000000000    0.0000000000000000
     0.0000000000000000   20.5800000000000054    0.0000000000000000
     0.0000000000000000    0.0000000000000000   20.1000000000000085
   O    C    O    C    H 
     1     2     1     1     8
Direct
  0.2842243238735925  0.2401772500451854  0.2542730717818221
  0.2611506215154167  0.2396498972634174  0.1862676508743787
  0.2846383655030763  0.2987571541103251  0.1465592211669630
  0.3544508531743696  0.3003493721144080  0.1453162701306344
  0.2619155981219766  0.2972189927929629  0.0743370422926537
  0.3278644125792303  0.2237396298830345  0.2541670316311800
  0.2758160630333178  0.1946216058911851  0.1610087283437391
  0.2087817333877075  0.2403753300315735  0.1897123167519289
  0.2670105239335617  0.3429933981148406  0.1713562133090908
  0.3691045218412682  0.3156273057197491  0.1885344516576342
  0.2094943383216101  0.2969498902564543  0.0716868684365885
  0.2796581054072761  0.3398841784119723  0.0475646660757866
  0.2800053718434830  0.2537181916719795  0.0490174625724745
 
  0.00000000E+00  0.00000000E+00  0.00000000E+00
  0.00000000E+00  0.00000000E+00  0.00000000E+00
  0.00000000E+00  0.00000000E+00  0.00000000E+00
  0.00000000E+00  0.00000000E+00  0.00000000E+00
  0.00000000E+00  0.00000000E+00  0.00000000E+00
  0.00000000E+00  0.00000000E+00  0.00000000E+00
  0.00000000E+00  0.00000000E+00  0.00000000E+00
  0.00000000E+00  0.00000000E+00  0.00000000E+00
  0.00000000E+00  0.00000000E+00  0.00000000E+00
  0.00000000E+00  0.00000000E+00  0.00000000E+00
  0.00000000E+00  0.00000000E+00  0.00000000E+00
  0.00000000E+00  0.00000000E+00  0.00000000E+00
  0.00000000E+00  0.00000000E+00  0.00000000E+00
